data;

param w := 29;
param n := 24;
param min_h := 29;
param max_h := 37;

set BLOCKS := 1 2 3 4 5 6 7 8 9 10 11 12 13 14 15 16 17 18 19 20 21 22 23 24 ;

param:	width	height :=
	1	5	17
	2	4	20
	3	4	18
	4	4	15
	5	3	20
	6	3	18
	7	3	15
	8	5	8
	9	4	9
	10	3	11
	11	3	10
	12	4	7
	13	3	9
	14	4	6
	15	3	8
	16	3	7
	17	4	5
	18	5	4
	19	3	6
	20	4	4
	21	3	5
	22	4	3
	23	3	4
	24	3	3;